Route #1: 1 16 14 31 6 1
Route #2: 1 25 4 21 33 19 23 35 24 1
Route #3: 1 30 29 10 13 38 32 15 36 26 1
Route #4: 1 28 11 17 5 20 34 39 1
Route #5: 1 27 12 2 7 22 18 37 1
Route #6: 1 3 9 8 1
cost 1023.9162491626145